(set-logic HORN)
(declare-datatypes ((Nat_31 0)) (((Z_88 ) (S_31 (unS_32 Nat_31)))))
(declare-fun diseqNat_31 (Nat_31 Nat_31) Bool)
(declare-fun unS_33 (Nat_31 Nat_31) Bool)
(declare-fun isZ_31 (Nat_31) Bool)
(declare-fun isS_31 (Nat_31) Bool)
(assert (forall ((x_978 Nat_31))
	(unS_33 x_978 (S_31 x_978))))
(assert (isZ_31 Z_88))
(assert (forall ((x_980 Nat_31))
	(isS_31 (S_31 x_980))))
(assert (forall ((x_981 Nat_31))
	(diseqNat_31 Z_88 (S_31 x_981))))
(assert (forall ((x_982 Nat_31))
	(diseqNat_31 (S_31 x_982) Z_88)))
(assert (forall ((x_983 Nat_31) (x_984 Nat_31))
	(=> (diseqNat_31 x_983 x_984)
	    (diseqNat_31 (S_31 x_983) (S_31 x_984)))))
(declare-fun add_16 (Nat_31 Nat_31 Nat_31) Bool)
(declare-fun minus_16 (Nat_31 Nat_31 Nat_31) Bool)
(declare-fun le_16 (Nat_31 Nat_31) Bool)
(declare-fun ge_16 (Nat_31 Nat_31) Bool)
(declare-fun lt_16 (Nat_31 Nat_31) Bool)
(declare-fun gt_16 (Nat_31 Nat_31) Bool)
(declare-fun mult_16 (Nat_31 Nat_31 Nat_31) Bool)
(declare-fun div_16 (Nat_31 Nat_31 Nat_31) Bool)
(declare-fun mod_16 (Nat_31 Nat_31 Nat_31) Bool)
(assert (forall ((y_70 Nat_31))
	(add_16 y_70 Z_88 y_70)))
(assert (forall ((x_902 Nat_31) (y_70 Nat_31) (r_16 Nat_31))
	(=> (add_16 r_16 x_902 y_70)
	    (add_16 (S_31 r_16) (S_31 x_902) y_70))))
(assert (forall ((y_70 Nat_31))
	(minus_16 Z_88 Z_88 y_70)))
(assert (forall ((x_902 Nat_31) (y_70 Nat_31) (r_16 Nat_31))
	(=> (minus_16 r_16 x_902 y_70)
	    (minus_16 (S_31 r_16) (S_31 x_902) y_70))))
(assert (forall ((y_70 Nat_31))
	(le_16 Z_88 y_70)))
(assert (forall ((x_902 Nat_31) (y_70 Nat_31))
	(=> (le_16 x_902 y_70)
	    (le_16 (S_31 x_902) (S_31 y_70)))))
(assert (forall ((y_70 Nat_31))
	(ge_16 y_70 Z_88)))
(assert (forall ((x_902 Nat_31) (y_70 Nat_31))
	(=> (ge_16 x_902 y_70)
	    (ge_16 (S_31 x_902) (S_31 y_70)))))
(assert (forall ((y_70 Nat_31))
	(lt_16 Z_88 (S_31 y_70))))
(assert (forall ((x_902 Nat_31) (y_70 Nat_31))
	(=> (lt_16 x_902 y_70)
	    (lt_16 (S_31 x_902) (S_31 y_70)))))
(assert (forall ((y_70 Nat_31))
	(gt_16 (S_31 y_70) Z_88)))
(assert (forall ((x_902 Nat_31) (y_70 Nat_31))
	(=> (gt_16 x_902 y_70)
	    (gt_16 (S_31 x_902) (S_31 y_70)))))
(assert (forall ((y_70 Nat_31))
	(mult_16 Z_88 Z_88 y_70)))
(assert (forall ((x_902 Nat_31) (y_70 Nat_31) (r_16 Nat_31) (z_89 Nat_31))
	(=>	(and (mult_16 r_16 x_902 y_70)
			(add_16 z_89 r_16 y_70))
		(mult_16 z_89 (S_31 x_902) y_70))))
(assert (forall ((x_902 Nat_31) (y_70 Nat_31))
	(=> (lt_16 x_902 y_70)
	    (div_16 Z_88 x_902 y_70))))
(assert (forall ((x_902 Nat_31) (y_70 Nat_31) (r_16 Nat_31) (z_89 Nat_31))
	(=>	(and (ge_16 x_902 y_70)
			(minus_16 z_89 x_902 y_70)
			(div_16 r_16 z_89 y_70))
		(div_16 (S_31 r_16) x_902 y_70))))
(assert (forall ((x_902 Nat_31) (y_70 Nat_31))
	(=> (lt_16 x_902 y_70)
	    (mod_16 x_902 x_902 y_70))))
(assert (forall ((x_902 Nat_31) (y_70 Nat_31) (r_16 Nat_31) (z_89 Nat_31))
	(=>	(and (ge_16 x_902 y_70)
			(minus_16 z_89 x_902 y_70)
			(mod_16 r_16 z_89 y_70))
		(mod_16 r_16 x_902 y_70))))
(declare-datatypes ((pair_8 0)) (((pair_9 (projpair_16 Nat_31) (projpair_17 Nat_31)))))
(declare-fun diseqpair_4 (pair_8 pair_8) Bool)
(declare-fun projpair_20 (Nat_31 pair_8) Bool)
(declare-fun projpair_21 (Nat_31 pair_8) Bool)
(declare-fun ispair_4 (pair_8) Bool)
(assert (forall ((x_903 Nat_31) (x_904 Nat_31))
	(projpair_20 x_903 (pair_9 x_903 x_904))))
(assert (forall ((x_903 Nat_31) (x_904 Nat_31))
	(projpair_21 x_904 (pair_9 x_903 x_904))))
(assert (forall ((x_906 Nat_31) (x_907 Nat_31))
	(ispair_4 (pair_9 x_906 x_907))))
(assert (forall ((x_908 Nat_31) (x_909 Nat_31) (x_910 Nat_31) (x_911 Nat_31))
	(=> (diseqNat_31 x_908 x_910)
	    (diseqpair_4 (pair_9 x_908 x_909) (pair_9 x_910 x_911)))))
(assert (forall ((x_908 Nat_31) (x_909 Nat_31) (x_910 Nat_31) (x_911 Nat_31))
	(=> (diseqNat_31 x_909 x_911)
	    (diseqpair_4 (pair_9 x_908 x_909) (pair_9 x_910 x_911)))))
(declare-datatypes ((pair_10 0)) (((pair_11 (projpair_18 Nat_31) (projpair_19 Nat_31)))))
(declare-fun diseqpair_5 (pair_10 pair_10) Bool)
(declare-fun projpair_22 (Nat_31 pair_10) Bool)
(declare-fun projpair_23 (Nat_31 pair_10) Bool)
(declare-fun ispair_5 (pair_10) Bool)
(assert (forall ((x_912 Nat_31) (x_913 Nat_31))
	(projpair_22 x_912 (pair_11 x_912 x_913))))
(assert (forall ((x_912 Nat_31) (x_913 Nat_31))
	(projpair_23 x_913 (pair_11 x_912 x_913))))
(assert (forall ((x_915 Nat_31) (x_916 Nat_31))
	(ispair_5 (pair_11 x_915 x_916))))
(assert (forall ((x_917 Nat_31) (x_918 Nat_31) (x_919 Nat_31) (x_920 Nat_31))
	(=> (diseqNat_31 x_917 x_919)
	    (diseqpair_5 (pair_11 x_917 x_918) (pair_11 x_919 x_920)))))
(assert (forall ((x_917 Nat_31) (x_918 Nat_31) (x_919 Nat_31) (x_920 Nat_31))
	(=> (diseqNat_31 x_918 x_920)
	    (diseqpair_5 (pair_11 x_917 x_918) (pair_11 x_919 x_920)))))
(declare-datatypes ((list_16 0)) (((nil_16 ) (cons_16 (head_32 Nat_31) (tail_32 list_16)))))
(declare-fun diseqlist_16 (list_16 list_16) Bool)
(declare-fun head_36 (Nat_31 list_16) Bool)
(declare-fun tail_36 (list_16 list_16) Bool)
(declare-fun isnil_16 (list_16) Bool)
(declare-fun iscons_16 (list_16) Bool)
(assert (forall ((x_922 Nat_31) (x_923 list_16))
	(head_36 x_922 (cons_16 x_922 x_923))))
(assert (forall ((x_922 Nat_31) (x_923 list_16))
	(tail_36 x_923 (cons_16 x_922 x_923))))
(assert (isnil_16 nil_16))
(assert (forall ((x_925 Nat_31) (x_926 list_16))
	(iscons_16 (cons_16 x_925 x_926))))
(assert (forall ((x_927 Nat_31) (x_928 list_16))
	(diseqlist_16 nil_16 (cons_16 x_927 x_928))))
(assert (forall ((x_929 Nat_31) (x_930 list_16))
	(diseqlist_16 (cons_16 x_929 x_930) nil_16)))
(assert (forall ((x_931 Nat_31) (x_932 list_16) (x_933 Nat_31) (x_934 list_16))
	(=> (diseqNat_31 x_931 x_933)
	    (diseqlist_16 (cons_16 x_931 x_932) (cons_16 x_933 x_934)))))
(assert (forall ((x_931 Nat_31) (x_932 list_16) (x_933 Nat_31) (x_934 list_16))
	(=> (diseqlist_16 x_932 x_934)
	    (diseqlist_16 (cons_16 x_931 x_932) (cons_16 x_933 x_934)))))
(declare-datatypes ((list_17 0)) (((nil_17 ) (cons_17 (head_33 pair_8) (tail_33 list_17)))))
(declare-fun diseqlist_17 (list_17 list_17) Bool)
(declare-fun head_37 (pair_8 list_17) Bool)
(declare-fun tail_37 (list_17 list_17) Bool)
(declare-fun isnil_17 (list_17) Bool)
(declare-fun iscons_17 (list_17) Bool)
(assert (forall ((x_936 pair_8) (x_937 list_17))
	(head_37 x_936 (cons_17 x_936 x_937))))
(assert (forall ((x_936 pair_8) (x_937 list_17))
	(tail_37 x_937 (cons_17 x_936 x_937))))
(assert (isnil_17 nil_17))
(assert (forall ((x_939 pair_8) (x_940 list_17))
	(iscons_17 (cons_17 x_939 x_940))))
(assert (forall ((x_941 pair_8) (x_942 list_17))
	(diseqlist_17 nil_17 (cons_17 x_941 x_942))))
(assert (forall ((x_943 pair_8) (x_944 list_17))
	(diseqlist_17 (cons_17 x_943 x_944) nil_17)))
(assert (forall ((x_945 pair_8) (x_946 list_17) (x_947 pair_8) (x_948 list_17))
	(=> (diseqpair_4 x_945 x_947)
	    (diseqlist_17 (cons_17 x_945 x_946) (cons_17 x_947 x_948)))))
(assert (forall ((x_945 pair_8) (x_946 list_17) (x_947 pair_8) (x_948 list_17))
	(=> (diseqlist_17 x_946 x_948)
	    (diseqlist_17 (cons_17 x_945 x_946) (cons_17 x_947 x_948)))))
(declare-datatypes ((list_18 0)) (((nil_18 ) (cons_18 (head_34 pair_10) (tail_34 list_18)))))
(declare-fun diseqlist_18 (list_18 list_18) Bool)
(declare-fun head_38 (pair_10 list_18) Bool)
(declare-fun tail_38 (list_18 list_18) Bool)
(declare-fun isnil_18 (list_18) Bool)
(declare-fun iscons_18 (list_18) Bool)
(assert (forall ((x_950 pair_10) (x_951 list_18))
	(head_38 x_950 (cons_18 x_950 x_951))))
(assert (forall ((x_950 pair_10) (x_951 list_18))
	(tail_38 x_951 (cons_18 x_950 x_951))))
(assert (isnil_18 nil_18))
(assert (forall ((x_953 pair_10) (x_954 list_18))
	(iscons_18 (cons_18 x_953 x_954))))
(assert (forall ((x_955 pair_10) (x_956 list_18))
	(diseqlist_18 nil_18 (cons_18 x_955 x_956))))
(assert (forall ((x_957 pair_10) (x_958 list_18))
	(diseqlist_18 (cons_18 x_957 x_958) nil_18)))
(assert (forall ((x_959 pair_10) (x_960 list_18) (x_961 pair_10) (x_962 list_18))
	(=> (diseqpair_5 x_959 x_961)
	    (diseqlist_18 (cons_18 x_959 x_960) (cons_18 x_961 x_962)))))
(assert (forall ((x_959 pair_10) (x_960 list_18) (x_961 pair_10) (x_962 list_18))
	(=> (diseqlist_18 x_960 x_962)
	    (diseqlist_18 (cons_18 x_959 x_960) (cons_18 x_961 x_962)))))
(declare-datatypes ((list_19 0)) (((nil_19 ) (cons_19 (head_35 Nat_31) (tail_35 list_19)))))
(declare-fun diseqlist_19 (list_19 list_19) Bool)
(declare-fun head_39 (Nat_31 list_19) Bool)
(declare-fun tail_39 (list_19 list_19) Bool)
(declare-fun isnil_19 (list_19) Bool)
(declare-fun iscons_19 (list_19) Bool)
(assert (forall ((x_964 Nat_31) (x_965 list_19))
	(head_39 x_964 (cons_19 x_964 x_965))))
(assert (forall ((x_964 Nat_31) (x_965 list_19))
	(tail_39 x_965 (cons_19 x_964 x_965))))
(assert (isnil_19 nil_19))
(assert (forall ((x_967 Nat_31) (x_968 list_19))
	(iscons_19 (cons_19 x_967 x_968))))
(assert (forall ((x_969 Nat_31) (x_970 list_19))
	(diseqlist_19 nil_19 (cons_19 x_969 x_970))))
(assert (forall ((x_971 Nat_31) (x_972 list_19))
	(diseqlist_19 (cons_19 x_971 x_972) nil_19)))
(assert (forall ((x_973 Nat_31) (x_974 list_19) (x_975 Nat_31) (x_976 list_19))
	(=> (diseqNat_31 x_973 x_975)
	    (diseqlist_19 (cons_19 x_973 x_974) (cons_19 x_975 x_976)))))
(assert (forall ((x_973 Nat_31) (x_974 list_19) (x_975 Nat_31) (x_976 list_19))
	(=> (diseqlist_19 x_974 x_976)
	    (diseqlist_19 (cons_19 x_973 x_974) (cons_19 x_975 x_976)))))
(declare-fun zip_4 (list_17 list_16 list_16) Bool)
(assert (forall ((x_894 list_17) (x_887 Nat_31) (x_888 list_16) (z_86 Nat_31) (x_886 list_16))
	(=> (zip_4 x_894 x_886 x_888)
	    (zip_4 (cons_17 (pair_9 z_86 x_887) x_894) (cons_16 z_86 x_886) (cons_16 x_887 x_888)))))
(assert (forall ((z_86 Nat_31) (x_886 list_16))
	(zip_4 nil_17 (cons_16 z_86 x_886) nil_16)))
(assert (forall ((y_68 list_16))
	(zip_4 nil_17 nil_16 y_68)))
(declare-fun zip_5 (list_18 list_19 list_16) Bool)
(assert (forall ((x_898 list_18) (x_891 Nat_31) (x_892 list_16) (z_87 Nat_31) (x_890 list_19))
	(=> (zip_5 x_898 x_890 x_892)
	    (zip_5 (cons_18 (pair_11 z_87 x_891) x_898) (cons_19 z_87 x_890) (cons_16 x_891 x_892)))))
(assert (forall ((z_87 Nat_31) (x_890 list_19))
	(zip_5 nil_18 (cons_19 z_87 x_890) nil_16)))
(assert (forall ((y_69 list_16))
	(zip_5 nil_18 nil_19 y_69)))
(assert (forall ((x_901 list_18) (xs_22 list_16))
	(=>	(and true
			(diseqlist_18 x_901 nil_18)
			(zip_5 x_901 nil_19 xs_22))
		false)))
(check-sat)
